LibMLKEM/why3-cvc5/mlkem.adb_526_66_mlkem.adb_910_7_division_check_1.smt2
;; produced by cvc5.drv ;;
(set-logic ALL)
(set-info :smt-lib-version 2.6)
;;; generated by SMT-LIB2 driver
;;; SMT-LIB2 driver: bit-vectors, common part
;;; SMT-LIB2: integer arithmetic
;; "pow2"
(declare-fun pow2 (Int) Int)

(declare-const two_power_size_minus_one Int)

;; "two_power_size_minus_one_val"
(assert (= two_power_size_minus_one (pow2 (- 8 1))))

;; "min"
(define-fun min ((x Int) (y Int)) Int
  (ite (<= x y) x y))

;; "max"
(define-fun max ((x Int) (y Int)) Int
  (ite (<= x y) y x))

;; "Min_r"
(assert (forall ((x Int) (y Int)) (=> (<= y x) (= (min x y) y))))

;; "Max_l"
(assert (forall ((x Int) (y Int)) (=> (<= y x) (= (max x y) x))))

;; "Min_comm"
(assert (forall ((x Int) (y Int)) (= (min x y) (min y x))))

;; "Max_comm"
(assert (forall ((x Int) (y Int)) (= (max x y) (max y x))))

;; "Min_assoc"
(assert
  (forall ((x Int) (y Int) (z Int)) (= (min (min x y) z) (min x (min y z)))))

;; "Max_assoc"
(assert
  (forall ((x Int) (y Int) (z Int)) (= (max (max x y) z) (max x (max y z)))))

(declare-sort byte 0)

;; "to_rep"
(declare-fun to_rep (byte) (_ BitVec 8))

;; "of_rep"
(declare-fun of_rep ((_ BitVec 8)) byte)

;; "inversion_axiom"
(assert
  (forall ((x byte)) (! (= (of_rep (to_rep x)) x) :pattern ((to_rep x)) )))

;; "range_axiom"
(assert true)

;; "coerce_axiom"
(assert
  (forall ((x (_ BitVec 8)))
    (! (= (to_rep (of_rep x)) x) :pattern ((to_rep (of_rep x))) )))

(declare-sort map1 0)

;; "has_bounds"
(declare-fun has_bounds (map1
  Int
  Int) Bool)

;; "get"
(declare-fun get (map1
  Int) byte)

(declare-const b map1)

(declare-sort u8_bit 0)

;; "in_range"
(define-fun in_range ((x (_ BitVec 8))) Bool
  (and (bvule #x00 x) (bvule x #x01)))

;; "to_rep"
(declare-fun to_rep1 (u8_bit) (_ BitVec 8))

;; "of_rep"
(declare-fun of_rep1 ((_ BitVec 8)) u8_bit)

;; "inversion_axiom"
(assert
  (forall ((x u8_bit))
    (! (= (of_rep1 (to_rep1 x)) x) :pattern ((to_rep1 x)) )))

;; "range_axiom"
(assert
  (forall ((x u8_bit)) (! (in_range (to_rep1 x)) :pattern ((to_rep1 x)) )))

;; "coerce_axiom"
(assert
  (forall ((x (_ BitVec 8)))
    (! (=> (in_range x) (= (to_rep1 (of_rep1 x)) x)) :pattern ((to_rep1
                                                                 (of_rep1 x))) )))

(declare-sort map2 0)

;; "has_bounds"
(declare-fun has_bounds1 (map2
  Int
  Int) Bool)

;; "get"
(declare-fun get1 (map2
  Int) u8_bit)

;; "mlkem__bytedecode1__bytestobits__r__aggregate_def"
(declare-fun mlkem__bytedecode1__bytestobits__r__aggregate_def ((_ BitVec 8)) map2)

;; Goal "def'vc"
;; File "mlkem.adb", line 910, characters 0-0
(assert
  (not
  (=>
    (has_bounds b 0 31)
    (forall ((temp___4521 map2))
      (=>
        (and
          (and
            (has_bounds1 temp___4521 0 255)
            (forall ((temp___4520 Int))
              (! (=>
                   (and (<= 0 temp___4520) (<= temp___4520 255))
                   (= (to_rep1 (get1 temp___4521 temp___4520)) #x00)) :pattern (
              (get1
                temp___4521
                temp___4520)) )))
          (= temp___4521 (mlkem__bytedecode1__bytestobits__r__aggregate_def
                           #x00)))
        (forall ((r map2))
          (=>
            (= r temp___4521)
            (=>
              (has_bounds1 r 0 255)
              (forall ((i Int))
                (=>
                  (= i 0)
                  (=>
                    (= (and (ite (<= 0 i) true false) (ite (<= i 31)
                                                        true
                                                        false)) true)
                    (forall ((r1 map2) (i1 Int))
                      (=>
                        (= (and (ite (has_bounds1 r1 0 255) true false) 
                        (ite (and (<= 0 i1) (<= i1 31))
                          true
                          false)) true)
                        (forall ((o (_ BitVec 8)))
                          (=>
                            (= (to_rep (get b i1)) o)
                            (forall ((this_byte (_ BitVec 8)))
                              (=>
                                (= this_byte o)
                                (forall ((j Int))
                                  (=>
                                    (= j 0)
                                    (=>
                                      (= (and (ite (<= 0 j) true false) 
                                      (ite (<= j 7)
                                        true
                                        false)) true)
                                      (forall ((r2 map2) (j1 Int))
                                        (=>
                                          (= (and (ite (has_bounds1 r2 0 255)
                                                    true
                                                    false) (ite (and
                                                                  (<= 0 j1)
                                                                  (<= j1 7))
                                                             true
                                                             false)) true)
                                          (not (= #x02 #x00))))))))))))))))))))))))

(check-sat)
